5 5
2 52 4 17 3 37 1 13 0 62
3 91 0 84 2 97 1 96 4 8
3 56 2 93 1 83 0 70 4 44
2 60 1 41 3 21 0 86 4 42
3 74 1 74 2 29 0 80 4 65
-1
0 1 2 4 5
0 1 2 3 5
0 1 2 3 5
0 1 2 4 5
0 3 5
-2
59 110 154 264
107 253 401 421
68 208 320 394
72 150 224 276
203 325

532 11
6 18 13 23 4
16 12 21 8 3
15 11 0 7 22
10 5 17 20 2
1 19 14 9 24
